 O  H  O  H  O  H  O  H  O  H  O  H  O  H  O  H  O  H  O  H  O  H  O  H  O  H  O  H  O  H  O  H  O  H  O  H  O  H  O  H  O  H  O  H  O  H  O  H  O  H  O  H  O  H  O  H  O  H  O  H  O  H  O  H  O  H  O  H  O  H  O  H  O  H  O  H  O  H  O  H  O  H  O  H  O  H  O  H  O  H  O  H  O  H  O  H  O  H  O  H  O  H  O  H  O  H  O  H  O  H  O  H  O  H  O  H  O  H  O  H  O  H  O  H  O  H  O  H 
 1.0000000000000000
    12.4199999999999999    0.0000000000000000    0.0000000000000000
     0.0000000000000000   12.4199999999999999    0.0000000000000000
     0.0000000000000000    0.0000000000000000   12.4199999999999999
 O   H   O   H   O   H   O   H   O   H   O   H   O   H   O   H   O   H   O   H   O   H   O   H   O   H   O   H   O   H   O   H   O   H   O   H   O   H   O   H   O   H   O   H   O   H   O   H   O   H   O   H   O   H   O   H   O   H   O   H   O   H   O   H   O   H   O   H   O   H   O   H   O   H   O   H   O   H   O   H   O   H   O   H   O   H   O   H   O   H   O   H   O   H   O   H   O   H   O   H   O   H   O   H   O   H   O   H   O   H   O   H   O   H   O   H   O   H   O   H   O   H   O   H   O   H   O   H  
   1   2   1   2   1   2   1   2   1   2   1   2   1   2   1   2   1   2   1   2   1   2   1   2   1   2   1   2   1   2   1   2   1   2   1   2   1   2   1   2   1   2   1   2   1   2   1   2   1   2   1   2   1   2   1   2   1   2   1   2   1   2   1   2   1   2   1   2   1   2   1   2   1   2   1   2   1   2   1   2   1   2   1   2   1   2   1   2   1   2   1   2   1   2   1   2   1   2   1   2   1   2   1   2   1   2   1   2   1   2   1   2   1   2   1   2   1   2   1   2   1   2   1   2   1   2   1   1
Cartesian
  5.0112120000000004 10.1160309999999996 11.9412040000000008
  5.9043899999999994 10.3215819999999994 11.5348600000000001
  5.2386739999999996 10.0127070000000007  0.4704520000000000
  8.2588869999999979  1.8402609999999999  2.5065050000000002
  7.4013789999999995  2.0534520000000001  2.2118620000000000
  8.2080529999999996  1.7665400000000000  3.4882350000000000
  7.2285609999999991  5.1158529999999995  8.2081689999999998
  4.2693859999999999  8.1945800000000002  8.7768929999999994
  6.6189049999999989  5.2836299999999996  8.9347569999999994
  2.2628040000000000  7.8971669999999987 11.5795010000000005
  2.1430330000000000  8.5776760000000003 12.3740769999999998
  2.7531750000000001  8.2668459999999993 10.8558079999999997
  3.8171420000000000  7.3758949999999990  5.9331440000000004
  2.9643890000000002  7.7614959999999993  6.4294279999999997
  4.4674719999999999  7.2923499999999990  6.5653119999999996
  9.2916880000000006  6.9427899999999996 11.7907820000000001
  8.4641709999999986  7.2586809999999993 11.3018289999999997
  8.8909970000000005  6.1237690000000002 12.1098630000000007
  3.4260009999999994  2.1833440000000000  0.4297960000000000
  2.9016890000000002  3.0445449999999998  0.2379480000000000
  3.5877050000000001  1.6354590000000000 12.0404830000000000
  5.7670779999999997 11.3758029999999994  6.7461649999999995
  5.2962169999999995 11.0808909999999976  7.5783399999999999
  6.6850790000000000 11.1769900000000000  6.9321719999999996
  3.7880440000000002  4.1705290000000002  2.8066909999999994
  4.3564309999999997  4.9315680000000004  2.6768130000000001
  3.7194240000000001  4.2051289999999995  3.8057300000000001
  2.6377909999999996  4.9366189999999994  5.4381199999999996
  3.0916060000000001  5.7772880000000004  5.5036990000000001
  1.8855519999999999  5.2175739999999990  4.7602419999999999
 11.4497920000000004  2.0688819999999999  9.0891000000000002
 10.5998490000000007  1.5510640000000000  9.0103050000000007
 12.2627000000000006  1.5018600000000000  9.0861219999999996
 11.1406719999999986  3.1814349999999996  3.6569389999999999
 11.3099980000000002  3.1808440000000000  4.6385259999999997
 11.8645509999999987  2.7499600000000002  3.2384369999999998
  6.9198230000000001  2.4836070000000001 11.3609170000000006
  6.4088469999999997  2.1798489999999995 12.1309869999999993
  7.8888360000000004  2.5254330000000000 11.5744609999999977
  1.7058110000000000  8.3206690000000005  6.9354269999999989
  0.9670949999999999  8.0963300000000000  6.3356149999999989
  1.5779629999999998  9.2472069999999995  7.0932899999999988
  3.4366409999999998  1.5040410000000000  4.9255009999999997
  4.3633119999999996  1.4081990000000000  4.6432159999999998
  2.7403399999999998  1.6692210000000001  4.3101449999999994
  7.4610810000000001 11.1506690000000006 10.3813659999999981
  8.3823390000000000 11.0858000000000008 10.7299229999999994
  7.4271799999999999 11.5987989999999996  9.4740260000000003
  9.7079389999999997  4.0285180000000000 10.8151539999999997
  9.4278580000000005  4.9641450000000003 10.8480139999999992
 10.1683819999999994  3.9355549999999999  9.8803439999999974
  8.3299240000000001  7.2958590000000001  7.6466440000000002
  7.7035369999999999  6.3928669999999999  7.9341970000000002
  8.0641099999999994  8.0870730000000002  8.1843339999999998
 11.8003060000000009  9.1174789999999994  2.3662500000000000
 11.6933410000000002  8.4248370000000001  1.5910879999999998
 10.8545750000000005  9.2989949999999979  2.5692629999999999
  9.2745270000000009 11.2062810000000006  0.8706000000000000
  8.9439560000000000 12.0477279999999993  0.4689820000000000
  8.4577039999999979 10.6903739999999985  1.1211480000000000
  9.7286070000000002  1.5883519999999998  0.2755600000000000
 10.1618779999999980  2.3797389999999998 12.2488419999999998
  9.3405989999999992  2.0404819999999999  1.1353260000000001
  4.1838240000000004  2.5723220000000002  7.5216820000000002
  3.8401160000000001  1.9359610000000000  6.9114439999999995
  4.5441469999999997  3.2684880000000001  6.9385450000000004
  1.9355199999999999  7.6155839999999992  3.3408620000000000
  2.8684880000000001  7.5659299999999998  3.6778739999999996
  1.7979650000000000  8.5976800000000004  3.1307549999999997
 10.2464270000000006 11.1804310000000005  9.3033579999999976
 10.7476809999999983 10.3040540000000007  9.0477959999999999
 10.7607879999999998 11.9046299999999992  8.8803540000000005
 10.4369239999999994  3.8079659999999995  6.8297420000000004
 11.3861699999999981  3.4990779999999999  6.8440009999999987
  9.8524410000000007  3.0935129999999997  7.1502819999999989
 12.1215189999999993  1.0910990000000000  5.4235660000000001
  0.4508139999999999  1.5319199999999999  5.9095139999999997
  0.0630580000000000  1.0430420000000000  4.4821119999999999
  7.0011809999999999  7.6356219999999988 10.4432600000000004
  6.4756779999999994  8.2651579999999996 11.0449760000000001
  6.2588960000000000  7.6591170000000002  9.7311099999999975
  5.6070580000000003  4.3246510000000002  6.3152329999999992
  5.5164929999999996  5.0535220000000001  5.6247209999999992
  6.3030549999999996  4.6849679999999996  6.9325710000000003
  4.4589619999999996  6.7685630000000003  0.4565950000000000
  4.7680030000000002  7.2625929999999990  1.2637669999999999
  3.8231470000000001  7.3602829999999999 12.4028629999999982
  3.9200970000000002  0.2404470000000000 11.1279760000000003
  4.5862800000000004  0.4780209999999999 10.4127419999999979
  4.0806499999999994 11.7104279999999985 11.4113059999999997
  1.4021239999999999  5.3262289999999988 11.8121949999999991
  1.1055779999999999  5.4596799999999996 10.8916679999999992
  2.1084119999999995  6.0204290000000000 11.7706509999999991
  5.4792379999999996 11.8450340000000001  3.4438339999999998
  4.7546640000000000 11.4440720000000002  4.0443479999999994
  6.1046810000000002 12.2595930000000006  4.0399599999999989
  4.4698310000000001  5.1442610000000002 10.0824680000000004
  4.2766500000000001  4.3108549999999992  9.6337659999999996
  4.3445649999999993  5.0703030000000000 10.9927229999999998
  1.2065660000000000  5.9310830000000001  9.1560140000000008
  0.2871940000000000  5.7503080000000004  8.7913490000000003
  1.2760080000000000  6.8956999999999988  8.9086379999999998
  8.8659649999999992  7.7996749999999997  2.6380249999999994
  8.4166509999999999  7.6498639999999991  1.8047679999999997
  9.5529220000000006  7.1383400000000004  2.6473419999999996
  1.2614550000000000  1.4491639999999999  2.7950919999999999
  0.7499150000000000  0.7482310000000000  2.4090370000000001
  1.4638480000000000  2.1602420000000002  2.1448269999999998
  0.6871189999999999  3.3803399999999999  6.8730719999999996
  1.2358460000000000  3.2668429999999997  7.6959489999999988
  1.3442159999999999  3.9708869999999994  6.4020900000000003
  7.1729459999999996  8.4448690000000006  5.4662889999999988
  6.3750939999999989  9.1218819999999994  5.6311510000000000
  7.6926119999999987  8.0079589999999996  6.1860140000000001
 11.8279130000000006 12.2282060000000001  1.8098430000000001
 11.4218790000000006 11.4160189999999986  2.2670149999999998
 11.0655269999999994  0.0547900000000000  1.2051040000000000
  5.8830629999999999  0.8141160000000000  9.1751810000000003
  6.5509059999999995  1.3048339999999998  9.6902910000000002
  5.5167060000000001  1.4667680000000001  8.5432640000000006
  1.7611880000000000  1.1394660000000001  8.9733599999999996
  2.7391540000000001  1.4136010000000001  8.9026399999999999
  1.5904950000000000  0.6742320000000001  9.8252290000000002
  2.6127270000000000 11.0584989999999994  4.1576730000000000
  2.7449889999999999 11.4474490000000007  5.0669599999999990
  2.3874549999999997 11.8010989999999989  3.5181409999999995
  6.3939009999999996  9.6152669999999993  2.2382569999999999
  6.6225430000000003  8.8107249999999979  2.6929639999999999
  6.1987589999999999 10.3347630000000006  2.8298049999999999
  0.1999690000000000  9.8823349999999994 10.6677450000000000
  1.1405519999999998 10.0961719999999993 10.7735900000000004
  0.0172620000000000  8.9631380000000007 11.0779610000000002
  6.2150519999999991  2.2303540000000002  4.7333569999999989
  5.8262150000000004  2.6030609999999998  3.9426609999999997
  6.0839220000000003  3.0860639999999999  5.3388809999999989
 10.6327909999999992  5.8786860000000001  8.6000169999999994
 10.4962789999999995  5.0268110000000004  8.0966100000000001
  9.8693220000000004  6.3990759999999991  8.4513189999999998
  5.4718980000000004  2.1692770000000001  2.2214800000000001
  5.4068189999999996  1.2205220000000001  2.3620500000000000
  4.6735400000000000  2.4202299999999997  1.6947650000000001
  7.0374739999999996  5.0145710000000001  0.3609540000000000
  6.9417189999999991  4.4549200000000004 11.9445460000000008
  6.3848459999999996  5.7355270000000003  0.4821929999999999
 11.6325749999999992 11.2913069999999998  6.7274229999999999
 11.1934570000000004 10.5992939999999987  6.0449429999999991
 11.4210639999999994 12.2013689999999979  6.3797810000000004
  0.9802450000000000  0.1248250000000000 11.6354419999999994
  0.2529060000000000 11.8287879999999994 11.5586139999999986
  0.4827589999999999  0.8071119999999999 12.1559029999999986
  9.2735310000000002  4.8130090000000001  2.6183160000000001
  9.8416910000000009  4.0980670000000003  2.9974180000000001
  8.8120349999999998  4.3645030000000000  1.8755369999999998
  0.1733470000000000  5.9480009999999996  4.1439789999999999
  0.7305660000000000  6.6406150000000004  3.6882340000000000
 12.0272849999999991  5.3749229999999999  3.5865979999999995
 11.9236030000000000  7.5892369999999998  0.0939010000000000
 10.9350670000000001  7.3977279999999990 12.3520719999999979
 12.3121529999999986  6.6893099999999990  0.1455150000000000
  3.5021479999999996 10.1145889999999987  9.0746769999999994
  3.7660550000000002 10.9331080000000007  9.6074420000000007
  2.9568779999999997 10.5628469999999979  8.2972159999999988
  8.2386109999999988 10.6265809999999998  7.4568399999999997
  8.9348779999999994 10.8261529999999997  8.0982179999999993
  8.8104530000000008 10.1644109999999994  6.7164809999999999
  4.9232480000000001  7.1567009999999991  3.4275500000000001
  4.9286940000000001  7.6847690000000002  4.2443730000000004
  5.5785780000000003  6.4564949999999994  3.7177959999999999
 10.0107049999999980  9.5805309999999988  5.1615890000000002
  9.2852829999999980  9.1550939999999983  4.6500700000000004
 10.4733509999999974  8.8274930000000005  5.6339719999999991
  1.7587740000000001 10.1039250000000003  0.8832389999999999
  1.0927819999999999  9.7298789999999986  1.5201979999999999
  1.6850609999999999 11.0965919999999976  0.7487970000000000
  1.9170309999999999 11.3329419999999992  7.2120699999999998
  1.8228000000000000 12.0970569999999995  7.8852289999999998
  0.9226890000000000 11.2657330000000009  6.8367169999999993
  8.2745689999999996  2.3517570000000001  8.2841430000000003
  7.5294519999999991  2.0292450000000000  7.7603590000000002
  8.0482300000000002  3.2977549999999995  8.3569709999999997
  7.1422330000000001  5.8313769999999998  3.9971749999999995
  7.9847569999999992  5.6279240000000001  3.5626750000000000
  7.3135719999999989  6.5636159999999997  4.6075049999999997
 11.4357009999999999  7.4719999999999995  5.9650059999999998
 11.6376770000000000  6.8326399999999987  5.2169549999999996
 10.9964739999999974  7.0108269999999999  6.7534229999999988
  0.9613669999999999  4.0329220000000001  1.7160959999999998
  0.7869360000000000  4.4636589999999998  0.8331169999999999
  1.7755239999999999  4.5653059999999996  1.9482919999999999
  4.8833269999999995  7.4493289999999996  8.7167539999999999
  4.4467689999999997  6.5780469999999989  8.6604770000000002
